
(set-logic HORN)
(declare-datatypes ((Bool_398 0)) (((false_398) (true_398))))
(declare-fun diseqBool_188 (Bool_398 Bool_398) Bool)
(declare-fun isfalse_188 (Bool_398) Bool)
(declare-fun istrue_188 (Bool_398) Bool)
(assert (isfalse_188 false_398))
(assert (istrue_188 true_398))
(assert (diseqBool_188 false_398 true_398))
(assert (diseqBool_188 true_398 false_398))
(declare-fun and_400 (Bool_398 Bool_398 Bool_398) Bool)
(declare-fun or_411 (Bool_398 Bool_398 Bool_398) Bool)
(declare-fun hence_398 (Bool_398 Bool_398 Bool_398) Bool)
(declare-fun not_403 (Bool_398 Bool_398) Bool)
(assert (and_400 false_398 false_398 false_398))
(assert (and_400 false_398 true_398 false_398))
(assert (and_400 false_398 false_398 true_398))
(assert (and_400 true_398 true_398 true_398))
(assert (or_411 false_398 false_398 false_398))
(assert (or_411 true_398 true_398 false_398))
(assert (or_411 true_398 false_398 true_398))
(assert (or_411 true_398 true_398 true_398))
(assert (hence_398 true_398 false_398 false_398))
(assert (hence_398 false_398 true_398 false_398))
(assert (hence_398 true_398 false_398 true_398))
(assert (hence_398 true_398 true_398 true_398))
(assert (not_403 true_398 false_398))
(assert (not_403 false_398 true_398))
(declare-datatypes ((T_14 0)) (((A_80) (B_76) (C_42))))
(declare-fun diseqT_14 (T_14 T_14) Bool)
(declare-fun isA_21 (T_14) Bool)
(declare-fun isB_21 (T_14) Bool)
(declare-fun isC_21 (T_14) Bool)
(assert (isA_21 A_80))
(assert (isB_21 B_76))
(assert (isC_21 C_42))
(assert (diseqT_14 A_80 B_76))
(assert (diseqT_14 A_80 C_42))
(assert (diseqT_14 B_76 A_80))
(assert (diseqT_14 C_42 A_80))
(assert (diseqT_14 B_76 C_42))
(assert (diseqT_14 C_42 B_76))
(declare-datatypes ((list_322 0)) (((nil_362) (cons_318 (head_636 T_14) (tail_640 list_322)))))
(declare-fun diseqlist_318 (list_322 list_322) Bool)
(declare-fun head_637 (T_14 list_322) Bool)
(declare-fun tail_641 (list_322 list_322) Bool)
(declare-fun isnil_362 (list_322) Bool)
(declare-fun iscons_318 (list_322) Bool)
(assert (forall ((x_75840 T_14) (x_75841 list_322))
	(head_637 x_75840 (cons_318 x_75840 x_75841))))
(assert (forall ((x_75840 T_14) (x_75841 list_322))
	(tail_641 x_75841 (cons_318 x_75840 x_75841))))
(assert (isnil_362 nil_362))
(assert (forall ((x_75843 T_14) (x_75844 list_322))
	(iscons_318 (cons_318 x_75843 x_75844))))
(assert (forall ((x_75845 T_14) (x_75846 list_322))
	(diseqlist_318 nil_362 (cons_318 x_75845 x_75846))))
(assert (forall ((x_75847 T_14) (x_75848 list_322))
	(diseqlist_318 (cons_318 x_75847 x_75848) nil_362)))
(assert (forall ((x_75849 T_14) (x_75850 list_322) (x_75851 T_14) (x_75852 list_322))
	(=> (diseqT_14 x_75849 x_75851) (diseqlist_318 (cons_318 x_75849 x_75850) (cons_318 x_75851 x_75852)))))
(assert (forall ((x_75849 T_14) (x_75850 list_322) (x_75851 T_14) (x_75852 list_322))
	(=> (diseqlist_318 x_75850 x_75852) (diseqlist_318 (cons_318 x_75849 x_75850) (cons_318 x_75851 x_75852)))))
(declare-datatypes ((R_525 0)) (((Nil_363) (Eps_56) (Atom_28 (projAtom_56 T_14)) (x_75791 (proj_144 R_525) (proj_145 R_525)) (x_75792 (proj_146 R_525) (proj_147 R_525)) (Star_28 (projStar_56 R_525)))))
(declare-fun diseqR_28 (R_525 R_525) Bool)
(declare-fun projAtom_57 (T_14 R_525) Bool)
(declare-fun proj_148 (R_525 R_525) Bool)
(declare-fun proj_149 (R_525 R_525) Bool)
(declare-fun proj_150 (R_525 R_525) Bool)
(declare-fun proj_151 (R_525 R_525) Bool)
(declare-fun projStar_57 (R_525 R_525) Bool)
(declare-fun isNil_363 (R_525) Bool)
(declare-fun isEps_28 (R_525) Bool)
(declare-fun isAtom_28 (R_525) Bool)
(declare-fun isx_50 (R_525) Bool)
(declare-fun isx_51 (R_525) Bool)
(declare-fun isStar_28 (R_525) Bool)
(assert (forall ((x_75855 T_14))
	(projAtom_57 x_75855 (Atom_28 x_75855))))
(assert (forall ((x_75857 R_525) (x_75858 R_525))
	(proj_148 x_75857 (x_75791 x_75857 x_75858))))
(assert (forall ((x_75857 R_525) (x_75858 R_525))
	(proj_149 x_75858 (x_75791 x_75857 x_75858))))
(assert (forall ((x_75860 R_525) (x_75861 R_525))
	(proj_150 x_75860 (x_75792 x_75860 x_75861))))
(assert (forall ((x_75860 R_525) (x_75861 R_525))
	(proj_151 x_75861 (x_75792 x_75860 x_75861))))
(assert (forall ((x_75863 R_525))
	(projStar_57 x_75863 (Star_28 x_75863))))
(assert (isNil_363 Nil_363))
(assert (isEps_28 Eps_56))
(assert (forall ((x_75865 T_14))
	(isAtom_28 (Atom_28 x_75865))))
(assert (forall ((x_75866 R_525) (x_75867 R_525))
	(isx_50 (x_75791 x_75866 x_75867))))
(assert (forall ((x_75868 R_525) (x_75869 R_525))
	(isx_51 (x_75792 x_75868 x_75869))))
(assert (forall ((x_75870 R_525))
	(isStar_28 (Star_28 x_75870))))
(assert (diseqR_28 Nil_363 Eps_56))
(assert (forall ((x_75871 T_14))
	(diseqR_28 Nil_363 (Atom_28 x_75871))))
(assert (forall ((x_75872 R_525) (x_75873 R_525))
	(diseqR_28 Nil_363 (x_75791 x_75872 x_75873))))
(assert (forall ((x_75874 R_525) (x_75875 R_525))
	(diseqR_28 Nil_363 (x_75792 x_75874 x_75875))))
(assert (forall ((x_75876 R_525))
	(diseqR_28 Nil_363 (Star_28 x_75876))))
(assert (diseqR_28 Eps_56 Nil_363))
(assert (forall ((x_75877 T_14))
	(diseqR_28 (Atom_28 x_75877) Nil_363)))
(assert (forall ((x_75878 R_525) (x_75879 R_525))
	(diseqR_28 (x_75791 x_75878 x_75879) Nil_363)))
(assert (forall ((x_75880 R_525) (x_75881 R_525))
	(diseqR_28 (x_75792 x_75880 x_75881) Nil_363)))
(assert (forall ((x_75882 R_525))
	(diseqR_28 (Star_28 x_75882) Nil_363)))
(assert (forall ((x_75883 T_14))
	(diseqR_28 Eps_56 (Atom_28 x_75883))))
(assert (forall ((x_75884 R_525) (x_75885 R_525))
	(diseqR_28 Eps_56 (x_75791 x_75884 x_75885))))
(assert (forall ((x_75886 R_525) (x_75887 R_525))
	(diseqR_28 Eps_56 (x_75792 x_75886 x_75887))))
(assert (forall ((x_75888 R_525))
	(diseqR_28 Eps_56 (Star_28 x_75888))))
(assert (forall ((x_75889 T_14))
	(diseqR_28 (Atom_28 x_75889) Eps_56)))
(assert (forall ((x_75890 R_525) (x_75891 R_525))
	(diseqR_28 (x_75791 x_75890 x_75891) Eps_56)))
(assert (forall ((x_75892 R_525) (x_75893 R_525))
	(diseqR_28 (x_75792 x_75892 x_75893) Eps_56)))
(assert (forall ((x_75894 R_525))
	(diseqR_28 (Star_28 x_75894) Eps_56)))
(assert (forall ((x_75895 T_14) (x_75896 R_525) (x_75897 R_525))
	(diseqR_28 (Atom_28 x_75895) (x_75791 x_75896 x_75897))))
(assert (forall ((x_75898 T_14) (x_75899 R_525) (x_75900 R_525))
	(diseqR_28 (Atom_28 x_75898) (x_75792 x_75899 x_75900))))
(assert (forall ((x_75901 T_14) (x_75902 R_525))
	(diseqR_28 (Atom_28 x_75901) (Star_28 x_75902))))
(assert (forall ((x_75903 R_525) (x_75904 R_525) (x_75905 T_14))
	(diseqR_28 (x_75791 x_75903 x_75904) (Atom_28 x_75905))))
(assert (forall ((x_75906 R_525) (x_75907 R_525) (x_75908 T_14))
	(diseqR_28 (x_75792 x_75906 x_75907) (Atom_28 x_75908))))
(assert (forall ((x_75909 R_525) (x_75910 T_14))
	(diseqR_28 (Star_28 x_75909) (Atom_28 x_75910))))
(assert (forall ((x_75911 R_525) (x_75912 R_525) (x_75913 R_525) (x_75914 R_525))
	(diseqR_28 (x_75791 x_75911 x_75912) (x_75792 x_75913 x_75914))))
(assert (forall ((x_75915 R_525) (x_75916 R_525) (x_75917 R_525))
	(diseqR_28 (x_75791 x_75915 x_75916) (Star_28 x_75917))))
(assert (forall ((x_75918 R_525) (x_75919 R_525) (x_75920 R_525) (x_75921 R_525))
	(diseqR_28 (x_75792 x_75918 x_75919) (x_75791 x_75920 x_75921))))
(assert (forall ((x_75922 R_525) (x_75923 R_525) (x_75924 R_525))
	(diseqR_28 (Star_28 x_75922) (x_75791 x_75923 x_75924))))
(assert (forall ((x_75925 R_525) (x_75926 R_525) (x_75927 R_525))
	(diseqR_28 (x_75792 x_75925 x_75926) (Star_28 x_75927))))
(assert (forall ((x_75928 R_525) (x_75929 R_525) (x_75930 R_525))
	(diseqR_28 (Star_28 x_75928) (x_75792 x_75929 x_75930))))
(assert (forall ((x_75931 T_14) (x_75932 T_14))
	(=> (diseqT_14 x_75931 x_75932) (diseqR_28 (Atom_28 x_75931) (Atom_28 x_75932)))))
(assert (forall ((x_75933 R_525) (x_75934 R_525) (x_75935 R_525) (x_75936 R_525))
	(=> (diseqR_28 x_75933 x_75935) (diseqR_28 (x_75791 x_75933 x_75934) (x_75791 x_75935 x_75936)))))
(assert (forall ((x_75933 R_525) (x_75934 R_525) (x_75935 R_525) (x_75936 R_525))
	(=> (diseqR_28 x_75934 x_75936) (diseqR_28 (x_75791 x_75933 x_75934) (x_75791 x_75935 x_75936)))))
(assert (forall ((x_75937 R_525) (x_75938 R_525) (x_75939 R_525) (x_75940 R_525))
	(=> (diseqR_28 x_75937 x_75939) (diseqR_28 (x_75792 x_75937 x_75938) (x_75792 x_75939 x_75940)))))
(assert (forall ((x_75937 R_525) (x_75938 R_525) (x_75939 R_525) (x_75940 R_525))
	(=> (diseqR_28 x_75938 x_75940) (diseqR_28 (x_75792 x_75937 x_75938) (x_75792 x_75939 x_75940)))))
(assert (forall ((x_75941 R_525) (x_75942 R_525))
	(=> (diseqR_28 x_75941 x_75942) (diseqR_28 (Star_28 x_75941) (Star_28 x_75942)))))
(declare-fun eps_57 (Bool_398 R_525) Bool)
(assert (forall ((y_2698 R_525))
	(eps_57 true_398 (Star_28 y_2698))))
(assert (forall ((x_75800 Bool_398) (x_75801 Bool_398) (x_75802 Bool_398) (r_526 R_525) (q_219 R_525))
	(=> (and (eps_57 x_75801 r_526) (eps_57 x_75802 q_219) (and_400 x_75800 x_75801 x_75802)) (eps_57 x_75800 (x_75792 r_526 q_219)))))
(assert (forall ((x_75803 Bool_398) (x_75804 Bool_398) (x_75805 Bool_398) (p_477 R_525) (q_220 R_525))
	(=> (and (eps_57 x_75804 p_477) (eps_57 x_75805 q_220) (or_411 x_75803 x_75804 x_75805)) (eps_57 x_75803 (x_75791 p_477 q_220)))))
(assert (eps_57 true_398 Eps_56))
(assert (forall ((x_75794 R_525) (x_75798 T_14))
	(eps_57 false_398 (Atom_28 x_75798))))
(assert (forall ((x_75794 R_525))
	(eps_57 false_398 Nil_363)))
(declare-fun step_28 (R_525 R_525 T_14) Bool)
(assert (forall ((x_75810 R_525) (p_478 R_525) (y_2699 T_14))
	(=> (step_28 x_75810 p_478 y_2699) (step_28 (x_75792 x_75810 (Star_28 p_478)) (Star_28 p_478) y_2699))))
(assert (forall ((x_75813 R_525) (x_75814 R_525) (r_527 R_525) (q_221 R_525) (y_2699 T_14))
	(=> (and (step_28 x_75813 r_527 y_2699) (step_28 x_75814 q_221 y_2699) (eps_57 true_398 r_527)) (step_28 (x_75791 (x_75792 x_75813 q_221) x_75814) (x_75792 r_527 q_221) y_2699))))
(assert (forall ((x_75817 R_525) (r_527 R_525) (q_221 R_525) (y_2699 T_14))
	(=> (and (step_28 x_75817 r_527 y_2699) (eps_57 false_398 r_527)) (step_28 (x_75791 (x_75792 x_75817 q_221) Nil_363) (x_75792 r_527 q_221) y_2699))))
(assert (forall ((x_75819 R_525) (x_75820 R_525) (p_479 R_525) (q_222 R_525) (y_2699 T_14))
	(=> (and (step_28 x_75819 p_479 y_2699) (step_28 x_75820 q_222 y_2699)) (step_28 (x_75791 x_75819 x_75820) (x_75791 p_479 q_222) y_2699))))
(assert (forall ((b_77 T_14))
	(step_28 Eps_56 (Atom_28 b_77) b_77)))
(assert (forall ((b_77 T_14) (y_2699 T_14))
	(=> (diseqT_14 b_77 y_2699) (step_28 Nil_363 (Atom_28 b_77) y_2699))))
(assert (forall ((x_75796 R_525) (y_2699 T_14))
	(step_28 Nil_363 Eps_56 y_2699)))
(assert (forall ((x_75796 R_525) (y_2699 T_14))
	(step_28 Nil_363 Nil_363 y_2699)))
(declare-fun rec_14 (Bool_398 R_525 list_322) Bool)
(assert (forall ((x_75825 Bool_398) (x_75826 R_525) (z_2395 T_14) (xs_800 list_322) (x_75797 R_525))
	(=> (and (step_28 x_75826 x_75797 z_2395) (rec_14 x_75825 x_75826 xs_800)) (rec_14 x_75825 x_75797 (cons_318 z_2395 xs_800)))))
(assert (forall ((x_75828 Bool_398) (x_75797 R_525))
	(=> (eps_57 x_75828 x_75797) (rec_14 x_75828 x_75797 nil_362))))
(assert (forall ((p_480 R_525))
	(=> (and true (rec_14 true_398 p_480 (cons_318 A_80 (cons_318 B_76 (cons_318 B_76 nil_362))))) false)))
(check-sat)
